c 2-SAT problem instance with 10 variables and 22 clauses
p cnf 10 22
1 2 0
-1 3 0
2 -3 0
-2 4 0
3 -4 0
-3 5 0
4 -5 0
-4 6 0
5 -6 0
-5 7 0
6 -7 0
-6 8 0
7 -8 0
-7 9 0
8 -9 0
-8 10 0
9 -10 0
-9 1 0
10 -1 0
-10 2 0
1 -2 0
-2 -3 0